Cs4 Cu2 Ag2 Cl12                        
   1.00000000000000     
     7.2750848406130215    0.3563115889919113    0.0004955242656364
     0.3563250285297982    7.2749816508456018   -0.0000998091793155
    -7.6303727737934430   -7.6301614451607271   10.9910498717634155
   Cl   Ag   Cu   Cs
    12     2     2     4
Direct
  0.7032771150663848  0.7065192456464970  0.9993833697001619
  0.7046947413245732  0.7071869651175433  0.4994508387417440
  0.2562560914755920  0.7439741883106947  0.9992640060483780
  0.2588059767361131  0.7461025676119135  0.5001984433739750
  0.7413274008316435  0.2595036470005496  0.9992053029377601
  0.7432506549443687  0.2610043090196044  0.4998890200442219
  0.2962809809596010  0.2988017386095052  0.4997222118436895
  0.2950797129230125  0.2977465769139300  0.9995714754978025
  0.2158069969505689  0.2187808057967331  0.2157724246760537
  0.2170920790678750  0.2199307405512982  0.7165969981623661
  0.7841251830790057  0.7864085911416865  0.2834615838515546
  0.7833068413577351  0.7860823700083941  0.7826444331422024
  0.9993510872505169  0.0022917555656932  0.9992204778199820
  0.0006307163277270  0.0031597427096699  0.5000142538294412
  0.4987533599686103  0.5017122661043487  0.9990512591147223
  0.5009424750128630  0.5034569075219295  0.5000434697496559
  0.2502221702178247  0.7530378421414952  0.2496099036268546
  0.2506461520384278  0.7530300009426938  0.7495025778855080
  0.7501599222111253  0.2525534491669319  0.2494307589623119
  0.7504113422564274  0.2531872901188734  0.7496041909916400
 
  0.00000000E+00  0.00000000E+00  0.00000000E+00
  0.00000000E+00  0.00000000E+00  0.00000000E+00
  0.00000000E+00  0.00000000E+00  0.00000000E+00
  0.00000000E+00  0.00000000E+00  0.00000000E+00
  0.00000000E+00  0.00000000E+00  0.00000000E+00
  0.00000000E+00  0.00000000E+00  0.00000000E+00
  0.00000000E+00  0.00000000E+00  0.00000000E+00
  0.00000000E+00  0.00000000E+00  0.00000000E+00
  0.00000000E+00  0.00000000E+00  0.00000000E+00
  0.00000000E+00  0.00000000E+00  0.00000000E+00
  0.00000000E+00  0.00000000E+00  0.00000000E+00
  0.00000000E+00  0.00000000E+00  0.00000000E+00
  0.00000000E+00  0.00000000E+00  0.00000000E+00
  0.00000000E+00  0.00000000E+00  0.00000000E+00
  0.00000000E+00  0.00000000E+00  0.00000000E+00
  0.00000000E+00  0.00000000E+00  0.00000000E+00
  0.00000000E+00  0.00000000E+00  0.00000000E+00
  0.00000000E+00  0.00000000E+00  0.00000000E+00
  0.00000000E+00  0.00000000E+00  0.00000000E+00
  0.00000000E+00  0.00000000E+00  0.00000000E+00
