ENCUT = 520.0
EDIFF = 1e-06
ISMEAR = 0
SIGMA = 0.01
ISPIN = 2
PREC = Accurate
LORBIT = 11
LASPH = TRUE
ADDGRID = TRUE
KPAR = 10
GGA = PE
ISYM = -1
LPEAD = FALSE
NSW = 0
NELM = 5000
ISIF = 2
IBRION = -1
LOPTICS = TRUE
AEXX = 0.233
LHFCALC = TRUE
HFSCREEN = 0.2
ALGO = Damped
TIME = 0.4
MAGMOM = 12*0.0 2*0.0 2*0.0 4*0.0
NBANDS = 384
NEDOS = 5000
