unknown system                          
   1.00000000000000     
     6.5029326037503488    0.0000000000000000    0.0000000000000000
     0.0000000000000000    5.6273244699806888    0.0000000000000000
     0.0000000000000000    0.0000000000000000    5.3049278258415065
   Zn   Mo   N 
     6     2     8
Direct
  0.2509931696493979  0.8327914809613191  0.7310446030247562
  0.2490068303506021  0.1672085190386809  0.2310446030247562
  0.7509931696493979  0.1672085190386809  0.2310446030247562
  0.7490068303506021  0.8327914809613191  0.7310446030247562
  0.0000000000000000  0.3335628975292337  0.7301953193543440
  0.5000000000000000  0.6664370724707638  0.2301953193543440
  0.0000000000000000  0.6696106242344939  0.2289093929762558
  0.5000000000000000  0.3303893757655061  0.7289094229762583
  0.7614466761808032  0.8272473973954746  0.1123948659747569
  0.7385533238191968  0.1727526026045325  0.6123948589747528
  0.2614466761808032  0.1727526026045325  0.6123948589747528
  0.2385533238191968  0.8272473973954746  0.1123948659747569
  0.0000000000000000  0.3540497246346277  0.1121256303494462
  0.5000000000000000  0.6459502453653698  0.6121256373494433
  0.0000000000000000  0.6709026836420762  0.5811407243209317
  0.5000000000000000  0.3290973163579238  0.0811407243209317
 
  0.00000000E+00  0.00000000E+00  0.00000000E+00
  0.00000000E+00  0.00000000E+00  0.00000000E+00
  0.00000000E+00  0.00000000E+00  0.00000000E+00
  0.00000000E+00  0.00000000E+00  0.00000000E+00
  0.00000000E+00  0.00000000E+00  0.00000000E+00
  0.00000000E+00  0.00000000E+00  0.00000000E+00
  0.00000000E+00  0.00000000E+00  0.00000000E+00
  0.00000000E+00  0.00000000E+00  0.00000000E+00
  0.00000000E+00  0.00000000E+00  0.00000000E+00
  0.00000000E+00  0.00000000E+00  0.00000000E+00
  0.00000000E+00  0.00000000E+00  0.00000000E+00
  0.00000000E+00  0.00000000E+00  0.00000000E+00
  0.00000000E+00  0.00000000E+00  0.00000000E+00
  0.00000000E+00  0.00000000E+00  0.00000000E+00
  0.00000000E+00  0.00000000E+00  0.00000000E+00
  0.00000000E+00  0.00000000E+00  0.00000000E+00
