                                        
   1.00000000000000     
     5.0105808038980006    0.0018027229406279    0.0000000000000000
    -1.8661930811112506    7.3914235309745013    0.0000000000000000
     0.0000000000000000    0.0000000000000000    8.0351490683411981
   O    Fe   As
    16     4     4
Direct
  0.9794018964149984  0.7698998283642240  0.7934345350868526
  0.5205981035850016  0.7301001716357760  0.2934345350868526
  0.0205981035850016  0.2301001716357760  0.2065654649131474
  0.4794018964149984  0.2698998283642240  0.7065654649131474
  0.9415171962531517  0.1200084803195480  0.8717572151705042
  0.5584828037468483  0.3799915196804520  0.3717572151705042
  0.0584828037468483  0.8799915196804520  0.1282427848294958
  0.4415171962531517  0.6200084803195480  0.6282427848294958
  0.9951279721856494  0.3252384791018343  0.5478178768706812
  0.5048720278143506  0.1747615208981657  0.0478178768706741
  0.0048720278143506  0.6747615208981586  0.4521821231293259
  0.4951279721856494  0.8252384791018414  0.9521821231293188
  0.1500256762881378  0.4618630935277039  0.8950499432142180
  0.3499743237118622  0.0381369064722961  0.3950499432142180
  0.8499743237118622  0.5381369064722961  0.1049500567857820
  0.6500256762881378  0.9618630935277039  0.6049500567857820
  0.1374408755770773  0.7062747656977422  0.9884756103549748
  0.3625591244229227  0.7937252343022578  0.4884756103549748
  0.8625591244229227  0.2937252343022578  0.0115243896450252
  0.6374408755770773  0.2062747656977351  0.5115243896450252
  0.7516308148320547  0.9094096670437466  0.8087301533881472
  0.7483691851679453  0.5905903329562534  0.3087301533881472
  0.2483691851679453  0.0905903329562534  0.1912698466118528
  0.2516308148320547  0.4094096670437466  0.6912698466118528
 
  0.00000000E+00  0.00000000E+00  0.00000000E+00
  0.00000000E+00  0.00000000E+00  0.00000000E+00
  0.00000000E+00  0.00000000E+00  0.00000000E+00
  0.00000000E+00  0.00000000E+00  0.00000000E+00
  0.00000000E+00  0.00000000E+00  0.00000000E+00
  0.00000000E+00  0.00000000E+00  0.00000000E+00
  0.00000000E+00  0.00000000E+00  0.00000000E+00
  0.00000000E+00  0.00000000E+00  0.00000000E+00
  0.00000000E+00  0.00000000E+00  0.00000000E+00
  0.00000000E+00  0.00000000E+00  0.00000000E+00
  0.00000000E+00  0.00000000E+00  0.00000000E+00
  0.00000000E+00  0.00000000E+00  0.00000000E+00
  0.00000000E+00  0.00000000E+00  0.00000000E+00
  0.00000000E+00  0.00000000E+00  0.00000000E+00
  0.00000000E+00  0.00000000E+00  0.00000000E+00
  0.00000000E+00  0.00000000E+00  0.00000000E+00
  0.00000000E+00  0.00000000E+00  0.00000000E+00
  0.00000000E+00  0.00000000E+00  0.00000000E+00
  0.00000000E+00  0.00000000E+00  0.00000000E+00
  0.00000000E+00  0.00000000E+00  0.00000000E+00
  0.00000000E+00  0.00000000E+00  0.00000000E+00
  0.00000000E+00  0.00000000E+00  0.00000000E+00
  0.00000000E+00  0.00000000E+00  0.00000000E+00
  0.00000000E+00  0.00000000E+00  0.00000000E+00
