EMAX = 20
ENCUT = 520.0
LCHARG = .TRUE.
LPLANE = .TRUE.
EDIFF = 1e-06
ISTART = 0
LDUO1 = 1 1 1
LDUU1 =   0.0000000000e+00   3.0000000000e+00   0.0000000000e+00
LDUJ1 =   0.0000000000e+00   0.0000000000e+00   0.0000000000e+00
LDUL1 = -1 2 -1
LDAUTYPE = 2
LDAU = .TRUE.
PREC = Accurate
ICHARG = 2
EDIFFG = 1e-05
LORBIT = 11
LPEAD = .FALSE.
LASPH = .TRUE.
ADDGRID = .TRUE.
LOPTICS = .FALSE.
ISMEAR = 0
ISPIN = 1
NPAR = 8
LVHAR = .FALSE.
EMIN = -50
LVTOT = .FALSE.
LMAXMIX = 4
LWAVE = .TRUE.
SIGMA = 0.01
ALGO = Normal
ISIF = 2
NEDOS = 1000
NSW = 0
LAECHG = TRUE
IBRION = -1
