ENCUT = 520.0
EDIFF = 1e-06
ISMEAR = 0
SIGMA = 0.01
ISPIN = 2
PREC = Normal
LORBIT = 11
LASPH = TRUE
ADDGRID = TRUE
ISIF = 3
ISYM = 0
ALGO = Normal
IBRION = 2
NSW = 1000
NELM = 100
METAGGA = SCAN
MAGMOM = 12*0.0 2*0.0 2*0.0 4*0.0
