Cs4 Ag2 Au2 Cl12                        
   1.00000000000000     
     7.2633841939365613    0.0046676782862662   -0.0021881374335629
     0.0049024174492693    7.2662911429704771   -0.0012524454331012
    -7.2725281536098656   -7.2716054356039939   11.1535403920191900
   Cl   Ag   Au   Cs
    12     2     2     4
Direct
  0.7238274130788934  0.7235334190927935  0.0006380775565970
  0.7240385535151452  0.7235013225423019  0.5006447578311901
  0.2717847236767504  0.7231610387052211  0.0005380804778722
  0.2722681230801490  0.7230709840683058  0.5005856201080975
  0.7284717616090144  0.2754165422422546  0.0039549156418153
  0.7290737608598508  0.2755339830528694  0.5041681142495132
  0.2767350658467618  0.2754860969660636  0.0042298341594025
  0.2770061687076315  0.2755054773925990  0.5042733762515230
  0.2162071760611567  0.2129048148853868  0.2157713190402615
  0.2159005166192248  0.2127957964712598  0.7155597070578223
  0.7864529526191985  0.7878450650700418  0.2880990174274757
  0.7850586874740456  0.7890454926828577  0.7885215254359176
 -0.0001043305995032  0.9992137340788020  0.0021638956231776
  0.0000995915746872  0.9984397598594085  0.5018131614361809
  0.5001286574629381  0.4992568175998053  0.0022644558703506
  0.5005290200346777  0.4992171719381380  0.5023383490809774
  0.2508634903747433  0.7498643383047506  0.2522194161642183
  0.2501531530413646  0.7500804980479847  0.7522643889971875
  0.7517212066981159  0.2494263337237753  0.2521603923075312
  0.7515423082651684  0.2499053132753798  0.7522065952829096
 
  0.00000000E+00  0.00000000E+00  0.00000000E+00
  0.00000000E+00  0.00000000E+00  0.00000000E+00
  0.00000000E+00  0.00000000E+00  0.00000000E+00
  0.00000000E+00  0.00000000E+00  0.00000000E+00
  0.00000000E+00  0.00000000E+00  0.00000000E+00
  0.00000000E+00  0.00000000E+00  0.00000000E+00
  0.00000000E+00  0.00000000E+00  0.00000000E+00
  0.00000000E+00  0.00000000E+00  0.00000000E+00
  0.00000000E+00  0.00000000E+00  0.00000000E+00
  0.00000000E+00  0.00000000E+00  0.00000000E+00
  0.00000000E+00  0.00000000E+00  0.00000000E+00
  0.00000000E+00  0.00000000E+00  0.00000000E+00
  0.00000000E+00  0.00000000E+00  0.00000000E+00
  0.00000000E+00  0.00000000E+00  0.00000000E+00
  0.00000000E+00  0.00000000E+00  0.00000000E+00
  0.00000000E+00  0.00000000E+00  0.00000000E+00
  0.00000000E+00  0.00000000E+00  0.00000000E+00
  0.00000000E+00  0.00000000E+00  0.00000000E+00
  0.00000000E+00  0.00000000E+00  0.00000000E+00
  0.00000000E+00  0.00000000E+00  0.00000000E+00
